%mem=8GB
%nprocshared=8
%chk=h2o_opt_hf.chk
# opt rhf/aug-cc-pvqz nosymm

h20_dimer_opt

0 1
 O                 -0.52740000    0.19604400   -0.14472300
 H                  0.16790300   -0.37557600    0.20695200
 H                 -0.34281400    0.37558700   -1.07615600
 O                 -3.06703700   -0.93120000    0.19196200
 H                 -2.18300300   -0.54066800    0.07777900
 H                 -3.58420700   -0.33061200    0.74394100

