%nprocshared=8
%mem=8GB
%chk=MeOH_opt.chk
# opt hf/3-21g

MeOH

0 1
 C                 -1.81256605   -0.24999809   -0.00000003
 H                 -1.45582602   -1.25877783    0.00000005
 H                 -1.45593612    0.25443072    0.87365131
 H                 -1.45593600    0.25443064   -0.87365137
 O                 -3.24256604   -0.25010208   -0.00000013
 H                 -3.56263186    0.65497133   -0.00000020



